(set-logic HORN)
(set-info :source |
    Benchmark: C_VC
    Output by Princess (http://www.philipp.ruemmer.org/princess.shtml)
|)
(set-info :status sat)
(declare-fun inv_main4 (Int Int Int Int Int Int Int Int Int Int Int Int) Bool)
(declare-fun inv_main43 (Int Int Int Int Int Int Int Int Int Int Int Int) Bool)
(declare-fun inv_main51 (Int Int Int Int Int Int Int Int Int Int Int Int) Bool)
(declare-fun inv_main52 (Int Int Int Int Int Int Int Int Int Int Int Int) Bool)
(declare-fun inv_main53 (Int Int Int Int Int Int Int Int Int Int Int Int) Bool)
(declare-fun inv_main54 (Int Int Int Int Int Int Int Int Int Int Int Int) Bool)
(declare-fun inv_main68 (Int Int Int Int Int Int Int Int Int Int Int Int) Bool)
(assert (forall ((var0 Int) (var1 Int) (var2 Int) (var3 Int) (var4 Int) (var5 Int) (var6 Int) (var7 Int) (var8 Int) (var9 Int) (var10 Int) (var11 Int)) (inv_main4 var11 var10 var9 var8 var7 var6 var5 var4 var3 var2 var1 var0)))
(assert (forall ((var0 Int) (var1 Int) (var2 Int) (var3 Int) (var4 Int) (var5 Int) (var6 Int) (var7 Int) (var8 Int) (var9 Int) (var10 Int) (var11 Int)) (or (not (inv_main51 var11 var10 var9 var8 var7 var6 var5 var4 var3 var2 var1 var0)) (inv_main52 var11 var10 var9 var8 var7 var6 var5 var4 var3 var2 var1 var0))))
(assert (forall ((var0 Int) (var1 Int) (var2 Int) (var3 Int) (var4 Int) (var5 Int) (var6 Int) (var7 Int) (var8 Int) (var9 Int) (var10 Int) (var11 Int)) (or (not (and (inv_main54 var11 var10 var9 var8 var7 var6 var5 var4 var3 var2 var1 var0) (<= 0 (+ var3 (* (- 1) var8))))) (inv_main51 var11 var10 var9 var8 var7 var6 var5 var4 (+ var3 (* (- 1) var8)) (+ var2 1) var1 var0))))
(assert (forall ((var0 Int) (var1 Int) (var2 Int) (var3 Int) (var4 Int) (var5 Int) (var6 Int) (var7 Int) (var8 Int) (var9 Int) (var10 Int) (var11 Int) (var12 Int) (var13 Int) (var14 Int) (var15 Int) (var16 Int) (var17 Int) (var18 Int) (var19 Int) (var20 Int) (var21 Int) (var22 Int) (var23 Int) (var24 Int) (var25 Int) (var26 Int) (var27 Int) (var28 Int) (var29 Int) (var30 Int) (var31 Int) (var32 Int) (var33 Int) (var34 Int) (var35 Int) (var36 Int) (var37 Int) (var38 Int) (var39 Int) (var40 Int) (var41 Int) (var42 Int) (var43 Int) (var44 Int) (var45 Int) (var46 Int) (var47 Int) (var48 Int) (var49 Int) (var50 Int) (var51 Int) (var52 Int) (var53 Int) (var54 Int) (var55 Int) (var56 Int) (var57 Int) (var58 Int) (var59 Int) (var60 Int) (var61 Int) (var62 Int) (var63 Int) (var64 Int) (var65 Int) (var66 Int) (var67 Int) (var68 Int) (var69 Int) (var70 Int) (var71 Int) (var72 Int) (var73 Int) (var74 Int) (var75 Int) (var76 Int) (var77 Int) (var78 Int) (var79 Int) (var80 Int) (var81 Int) (var82 Int) (var83 Int) (var84 Int) (var85 Int) (var86 Int) (var87 Int) (var88 Int) (var89 Int)) (or (not (and (inv_main4 var89 var88 var87 var86 var85 var84 var83 var82 var81 var80 var79 var78) (and (not (= var77 0)) (and (and (not (= var76 0)) (and (and (and (and (and (and (and (and (and (and (and (and (= var75 var74) (= var73 var72)) (= var71 var70)) (= var77 var69)) (= var68 var67)) (= var66 var65)) (= var64 var63)) (= var62 var61)) (= var60 var59)) (= var58 var57)) (= var56 var55)) (= var54 var53)) (or (and (<= 0 (+ (+ 2147483647 (* (- 1) var53)) (- 1))) (= var76 1)) (and (not (<= 0 (+ (+ 2147483647 (* (- 1) var53)) (- 1)))) (= var76 0))))) (and (and (and (not (= var52 0)) (and (and (and (and (and (and (and (and (and (and (and (and (= var74 var51) (= var72 var50)) (= var70 var49)) (= var69 var48)) (= var67 var47)) (= var65 var46)) (= var63 var45)) (= var61 var44)) (= var59 var43)) (= var57 var42)) (= var55 var41)) (= var53 var40)) (or (and (<= 0 (+ (+ 2147483647 (* (- 1) var41)) (- 1))) (= var52 1)) (and (not (<= 0 (+ (+ 2147483647 (* (- 1) var41)) (- 1)))) (= var52 0))))) (and (and (and (not (= var39 0)) (and (and (and (and (and (and (and (and (and (and (and (and (= var38 var37) (= var36 var35)) (= var34 var33)) (= var32 var31)) (= var30 var29)) (= var28 var27)) (= var26 var25)) (= var24 var23)) (= var22 var21)) (= var20 var19)) (= var18 var17)) (= var16 var15)) (or (and (<= 0 (+ var35 (- 1))) (= var39 1)) (and (not (<= 0 (+ var35 (- 1)))) (= var39 0))))) (and (not (= var14 0)) (and (and (and (and (and (and (and (and (and (and (and (and (= var37 var13) (= var35 var12)) (= var33 var87)) (= var31 var86)) (= var29 var85)) (= var27 var84)) (= var25 var83)) (= var23 var82)) (= var21 var81)) (= var19 var80)) (= var17 var79)) (= var15 var78)) (or (and (<= 0 (+ var13 (- 1))) (= var14 1)) (and (not (<= 0 (+ var13 (- 1)))) (= var14 0)))))) (and (and (and (and (and (and (and (and (and (and (and (= var11 var38) (= var10 var36)) (= var9 var38)) (= var8 var36)) (= var7 1)) (= var6 0)) (= var5 0)) (= var4 1)) (= var3 0)) (= var2 0)) (= var1 (* var38 var36))) (= var0 var16)))) (and (and (and (and (and (and (and (and (and (and (and (= var51 var11) (= var50 var10)) (= var49 var9)) (= var48 var8)) (= var47 var7)) (= var46 var6)) (= var45 var5)) (= var44 var4)) (= var43 var3)) (= var42 var2)) (= var41 var1)) (= var40 (* var10 var10)))))))) (inv_main51 var75 var73 var71 var77 var68 var66 var64 var62 var71 0 var56 var54))))
(assert (forall ((var0 Int) (var1 Int) (var2 Int) (var3 Int) (var4 Int) (var5 Int) (var6 Int) (var7 Int) (var8 Int) (var9 Int) (var10 Int) (var11 Int) (var12 Int) (var13 Int) (var14 Int) (var15 Int) (var16 Int) (var17 Int) (var18 Int) (var19 Int) (var20 Int) (var21 Int) (var22 Int) (var23 Int) (var24 Int) (var25 Int) (var26 Int) (var27 Int) (var28 Int) (var29 Int) (var30 Int) (var31 Int) (var32 Int) (var33 Int) (var34 Int) (var35 Int) (var36 Int)) (or (not (and (inv_main54 var36 var35 var34 var33 var32 var31 var30 var29 var28 var27 var26 var25) (and (and (not (= var24 0)) (and (and (and (and (and (and (and (and (and (and (and (and (and (= var23 var36) (= var22 var35)) (= var21 var33)) (= var20 var28)) (= var19 var31)) (= var18 (+ var32 (* (- 1) (* var31 var27))))) (= var17 var30)) (= var16 var29)) (= var15 var28)) (= var14 var27)) (= var13 var26)) (= var12 var25)) (= var11 var32)) (not (<= 0 (+ var28 (* (- 1) var33)))))) (and (and (and (and (and (and (and (and (and (and (and (= var10 var23) (= var9 var22)) (= var8 var21)) (= var24 var20)) (= var7 var19)) (= var6 var18)) (= var5 var16)) (= var4 (+ var17 (* (- 1) (* var16 var14))))) (= var3 var15)) (= var2 var14)) (= var1 var13)) (= var0 var12))))) (inv_main51 var10 var9 var8 var24 var7 var6 var5 var4 var8 0 var1 var0))))
(assert (forall ((var0 Int) (var1 Int) (var2 Int) (var3 Int) (var4 Int) (var5 Int) (var6 Int) (var7 Int) (var8 Int) (var9 Int) (var10 Int) (var11 Int)) (or (not (inv_main52 var11 var10 var9 var8 var7 var6 var5 var4 var3 var2 var1 var0)) (inv_main53 var11 var10 var9 var8 var7 var6 var5 var4 var3 var2 var1 var0))))
(assert (forall ((var0 Int) (var1 Int) (var2 Int) (var3 Int) (var4 Int) (var5 Int) (var6 Int) (var7 Int) (var8 Int) (var9 Int) (var10 Int) (var11 Int) (var12 Int) (var13 Int) (var14 Int) (var15 Int) (var16 Int) (var17 Int) (var18 Int) (var19 Int) (var20 Int) (var21 Int) (var22 Int) (var23 Int) (var24 Int) (var25 Int) (var26 Int) (var27 Int) (var28 Int) (var29 Int) (var30 Int) (var31 Int) (var32 Int) (var33 Int) (var34 Int) (var35 Int) (var36 Int) (var37 Int) (var38 Int) (var39 Int) (var40 Int) (var41 Int) (var42 Int) (var43 Int) (var44 Int) (var45 Int) (var46 Int) (var47 Int) (var48 Int) (var49 Int) (var50 Int) (var51 Int) (var52 Int) (var53 Int) (var54 Int) (var55 Int) (var56 Int) (var57 Int) (var58 Int) (var59 Int) (var60 Int) (var61 Int) (var62 Int) (var63 Int) (var64 Int) (var65 Int) (var66 Int) (var67 Int) (var68 Int) (var69 Int) (var70 Int) (var71 Int) (var72 Int) (var73 Int) (var74 Int) (var75 Int) (var76 Int) (var77 Int) (var78 Int) (var79 Int) (var80 Int) (var81 Int) (var82 Int) (var83 Int) (var84 Int) (var85 Int) (var86 Int) (var87 Int) (var88 Int) (var89 Int)) (or (not (and (inv_main4 var89 var88 var87 var86 var85 var84 var83 var82 var81 var80 var79 var78) (and (= var77 0) (and (and (not (= var76 0)) (and (and (and (and (and (and (and (and (and (and (and (and (= var75 var74) (= var73 var72)) (= var71 var70)) (= var77 var69)) (= var68 var67)) (= var66 var65)) (= var64 var63)) (= var62 var61)) (= var60 var59)) (= var58 var57)) (= var56 var55)) (= var54 var53)) (or (and (<= 0 (+ (+ 2147483647 (* (- 1) var53)) (- 1))) (= var76 1)) (and (not (<= 0 (+ (+ 2147483647 (* (- 1) var53)) (- 1)))) (= var76 0))))) (and (and (and (not (= var52 0)) (and (and (and (and (and (and (and (and (and (and (and (and (= var74 var51) (= var72 var50)) (= var70 var49)) (= var69 var48)) (= var67 var47)) (= var65 var46)) (= var63 var45)) (= var61 var44)) (= var59 var43)) (= var57 var42)) (= var55 var41)) (= var53 var40)) (or (and (<= 0 (+ (+ 2147483647 (* (- 1) var41)) (- 1))) (= var52 1)) (and (not (<= 0 (+ (+ 2147483647 (* (- 1) var41)) (- 1)))) (= var52 0))))) (and (and (and (not (= var39 0)) (and (and (and (and (and (and (and (and (and (and (and (and (= var38 var37) (= var36 var35)) (= var34 var33)) (= var32 var31)) (= var30 var29)) (= var28 var27)) (= var26 var25)) (= var24 var23)) (= var22 var21)) (= var20 var19)) (= var18 var17)) (= var16 var15)) (or (and (<= 0 (+ var35 (- 1))) (= var39 1)) (and (not (<= 0 (+ var35 (- 1)))) (= var39 0))))) (and (not (= var14 0)) (and (and (and (and (and (and (and (and (and (and (and (and (= var37 var13) (= var35 var12)) (= var33 var87)) (= var31 var86)) (= var29 var85)) (= var27 var84)) (= var25 var83)) (= var23 var82)) (= var21 var81)) (= var19 var80)) (= var17 var79)) (= var15 var78)) (or (and (<= 0 (+ var13 (- 1))) (= var14 1)) (and (not (<= 0 (+ var13 (- 1)))) (= var14 0)))))) (and (and (and (and (and (and (and (and (and (and (and (= var11 var38) (= var10 var36)) (= var9 var38)) (= var8 var36)) (= var7 1)) (= var6 0)) (= var5 0)) (= var4 1)) (= var3 0)) (= var2 0)) (= var1 (* var38 var36))) (= var0 var16)))) (and (and (and (and (and (and (and (and (and (and (and (= var51 var11) (= var50 var10)) (= var49 var9)) (= var48 var8)) (= var47 var7)) (= var46 var6)) (= var45 var5)) (= var44 var4)) (= var43 var3)) (= var42 var2)) (= var41 var1)) (= var40 (* var10 var10)))))))) (inv_main43 var75 var73 var71 var77 var68 var66 var64 var62 var60 var58 var56 var54))))
(assert (forall ((var0 Int) (var1 Int) (var2 Int) (var3 Int) (var4 Int) (var5 Int) (var6 Int) (var7 Int) (var8 Int) (var9 Int) (var10 Int) (var11 Int) (var12 Int) (var13 Int) (var14 Int) (var15 Int) (var16 Int) (var17 Int) (var18 Int) (var19 Int) (var20 Int) (var21 Int) (var22 Int) (var23 Int) (var24 Int) (var25 Int) (var26 Int) (var27 Int) (var28 Int) (var29 Int) (var30 Int) (var31 Int) (var32 Int) (var33 Int) (var34 Int) (var35 Int) (var36 Int)) (or (not (and (inv_main54 var36 var35 var34 var33 var32 var31 var30 var29 var28 var27 var26 var25) (and (and (= var24 0) (and (and (and (and (and (and (and (and (and (and (and (and (and (= var23 var36) (= var22 var35)) (= var21 var33)) (= var20 var28)) (= var19 var31)) (= var18 (+ var32 (* (- 1) (* var31 var27))))) (= var17 var30)) (= var16 var29)) (= var15 var28)) (= var14 var27)) (= var13 var26)) (= var12 var25)) (= var11 var32)) (not (<= 0 (+ var28 (* (- 1) var33)))))) (and (and (and (and (and (and (and (and (and (and (and (= var10 var23) (= var9 var22)) (= var8 var21)) (= var24 var20)) (= var7 var19)) (= var6 var18)) (= var5 var16)) (= var4 (+ var17 (* (- 1) (* var16 var14))))) (= var3 var15)) (= var2 var14)) (= var1 var13)) (= var0 var12))))) (inv_main43 var10 var9 var8 var24 var7 var6 var5 var4 var3 var2 var1 var0))))
(assert (forall ((var0 Int) (var1 Int) (var2 Int) (var3 Int) (var4 Int) (var5 Int) (var6 Int) (var7 Int) (var8 Int) (var9 Int) (var10 Int) (var11 Int)) (or (not (inv_main53 var11 var10 var9 var8 var7 var6 var5 var4 var3 var2 var1 var0)) (inv_main54 var11 var10 var9 var8 var7 var6 var5 var4 var3 var2 var1 var0))))
(assert (forall ((var0 Int) (var1 Int) (var2 Int) (var3 Int) (var4 Int) (var5 Int) (var6 Int) (var7 Int) (var8 Int) (var9 Int) (var10 Int) (var11 Int)) (or (not (inv_main43 var11 var10 var9 var8 var7 var6 var5 var4 var3 var2 var1 var0)) (inv_main68 var11 var10 var9 var8 var7 var6 var5 var4 var3 var2 var1 var0))))
(assert (forall ((var0 Int) (var1 Int) (var2 Int) (var3 Int) (var4 Int) (var5 Int) (var6 Int) (var7 Int) (var8 Int) (var9 Int) (var10 Int) (var11 Int)) (not (and (inv_main51 var11 var10 var9 var8 var7 var6 var5 var4 var3 var2 var1 var0) (not (= var9 (+ (* var2 var8) var3)))))))
(assert (forall ((var0 Int) (var1 Int) (var2 Int) (var3 Int) (var4 Int) (var5 Int) (var6 Int) (var7 Int) (var8 Int) (var9 Int) (var10 Int) (var11 Int)) (not (and (inv_main52 var11 var10 var9 var8 var7 var6 var5 var4 var3 var2 var1 var0) (not (= var9 (+ (* var10 var5) (* var11 var7))))))))
(assert (forall ((var0 Int) (var1 Int) (var2 Int) (var3 Int) (var4 Int) (var5 Int) (var6 Int) (var7 Int) (var8 Int) (var9 Int) (var10 Int) (var11 Int)) (not (and (inv_main53 var11 var10 var9 var8 var7 var6 var5 var4 var3 var2 var1 var0) (not (= var8 (+ (* var11 var6) (* var10 var4))))))))
(assert (forall ((var0 Int) (var1 Int) (var2 Int) (var3 Int) (var4 Int) (var5 Int) (var6 Int) (var7 Int) (var8 Int) (var9 Int) (var10 Int) (var11 Int)) (not (and (inv_main54 var11 var10 var9 var8 var7 var6 var5 var4 var3 var2 var1 var0) (not (= (+ (+ (+ (+ (+ (* var6 var1) (* var4 var0)) (* (- 1) (* var6 var11))) (* (- 1) (* var8 var10))) (* (- 1) (* var4 var10))) var8) 0))))))
(assert (forall ((var0 Int) (var1 Int) (var2 Int) (var3 Int) (var4 Int) (var5 Int) (var6 Int) (var7 Int) (var8 Int) (var9 Int) (var10 Int) (var11 Int)) (not (and (inv_main43 var11 var10 var9 var8 var7 var6 var5 var4 var3 var2 var1 var0) (not (= (+ (* var6 var11) (* var4 var10)) 0))))))
(assert (forall ((var0 Int) (var1 Int) (var2 Int) (var3 Int) (var4 Int) (var5 Int) (var6 Int) (var7 Int) (var8 Int) (var9 Int) (var10 Int) (var11 Int)) (not (and (inv_main68 var11 var10 var9 var8 var7 var6 var5 var4 var3 var2 var1 var0) (not (= (+ (* var7 var11) (* var5 var10)) var9))))))
(check-sat)
